submitit INFO (2023-04-30 19:21:47,027) - Starting with JobEnvironment(job_id=27536, hostname=cpunode25, local_rank=3(5), node=0(1), global_rank=3(5))
submitit INFO (2023-04-30 19:21:47,027) - Loading pickle: /h/30/pashootan/Matrix-Mult-CP/src/../logs/2x2x2_6_Apr30_19:21:44/27536_submitted.pkl
 ! --------------------------------------------------- CP Optimizer 22.1.1.0 --
 ! Satisfiability problem - 72 variables, 117 constraints
 ! TimeLimit            = 7200
 ! Workers              = 8
 ! LogPeriod            = 10000000
 ! RandomSeed           = 3270
 ! Initial process time : 0.00s (0.00s extraction + 0.00s propagation)
 !  . Log search space  : 107.1 (before), 107.1 (after)
 !  . Memory usage      : 495.1 kB (before), 495.1 kB (after)
 ! Using parallel search with 8 workers.
 ! ----------------------------------------------------------------------------
 !               Branches  Non-fixed    W       Branch decision
                   10000k          6    1   F     0 != V1_0
                   10000k          6    2        -1 != V4_1
                   10000k          6    5   F     1 != V3_3
                   10000k          6    6        -1  = U0_1
                   10000k          7    3   F    -1  = V1_1
                   10000k          6    4   F    -1  = W3_1
                   10000k          6    8   F     0  = V1_0
                   10000k          7    7        -1 != W3_1
                   20000k          6    2        -1 != V1_0
                   20000k          6    1   F     0 != V2_0
                   20000k          6    4   F     0 != V2_1
                   20000k          6    5   F     0 != U2_2
                   20000k          6    6   F    -1 != V3_2
                   20000k          6    3        -1 != V0_1
                   20000k          8    7         1 != U1_3
                   20000k          6    8   F    -1  = W3_1
                   30000k          6    1        -1 != W4_1
                   30000k          6    2         0 != W3_1
                   30000k          6    4         0  = W1_1
                   30000k          6    5   F     1  = U2_3
 ! Time = 333.95s, Average fail depth = 18, Memory usage = 145.1 MB
 !               Branches  Non-fixed    W       Branch decision
                   30000k          6    6        -1 != W5_1
                   30000k          8    3   F     0  = V1_1
                   30000k          6    8   F     1 != V1_1
                   30000k          8    7        -1 != U4_2
 ! ----------------------------------------------------------------------------
 ! Search completed, model has no solution.
 ! ----------------------------------------------------------------------------
 ! Number of branches     : 295644272
 ! Number of fails        : 145881028
 ! Total memory usage     : 185.7 MB (185.6 MB CP Optimizer + 0.0 MB Concert)
 ! Time spent in solve    : 417.22s (417.22s engine + 0.00s extraction)
 ! Search speed (br. / s) : 708605.2
 ! ----------------------------------------------------------------------------
Infeasible
Saving stats to: /h/30/pashootan/Matrix-Mult-CP/logs/2x2x2_6_Apr30_19:21:44/27536_3_stats.csv
submitit INFO (2023-04-30 19:28:44,799) - Job completed successfully
